5 5
8 3 3 20 1 17 4 8 5 5 7 4 12 2 20 1 11 3 20 2 2 4 1 19 3 5 20 2 6 4 12 2 4 17 2 8 1 5 16 2 3 4 2 2 3 1 5 5 5 3 2
4 2 1 7 2 16 2 2 16 4 7 3 3 8 4 17 2 5 1 2 17
7 4 3 4 5 16 1 8 4 4 4 2 16 3 15 4 19 5 11 2 4 14 3 17 5 2 15 5 4 4 16 3 17 1 17 2 5 2 1 5 4 3 20 1 10 4 18 5 10 4 5 16 1 7 2 14 4 17
7 3 4 7 3 20 5 13 5 5 3 3 5 1 17 2 12 4 2 1 1 17 1 1 5 4 2 18 3 18 5 17 4 9 2 1 17 2 9 1 2 3
5 3 4 13 2 11 3 7 5 1 15 4 7 3 20 2 6 5 15 3 4 20 1 10 3 18 5 5 14 1 4 4 15 2 17 3 10 3 2 11 4 5 3 8